certificates/rado_a7_c187_N27.drat
-27 0
25 0
-13 0
11 0
15 0
-23 0
-3 0
21 0
1 0
5 0
-9 0
-26 0
-17 0
-24 0
7 0
4 0
14 0
0
